(set-logic QF_SLIA)
(set-option :produce-models true)
(declare-const X String)
; ^((1[01])|(\d)):[0-5]\d(:[0-5]\d)?\s?([apAP][Mm])?$
(assert (not (str.in_re X (re.++ (re.union (re.++ (str.to_re "1") (re.union (str.to_re "0") (str.to_re "1"))) (re.range "0" "9")) (str.to_re ":") (re.range "0" "5") (re.range "0" "9") (re.opt (re.++ (str.to_re ":") (re.range "0" "5") (re.range "0" "9"))) (re.opt (re.union (str.to_re " ") (str.to_re "\u{09}") (str.to_re "\u{0a}") (str.to_re "\u{0c}") (str.to_re "\u{0d}"))) (re.opt (re.++ (re.union (str.to_re "a") (str.to_re "p") (str.to_re "A") (str.to_re "P")) (re.union (str.to_re "M") (str.to_re "m")))) (str.to_re "\u{0a}")))))
; ^([a-zA-Z][a-zA-Z0-9+-.]*):((\/\/(((([a-zA-Z0-9\-._~!$&'()*+,;=':]|(%[0-9a-fA-F]{2}))*)@)?((\[((((([0-9a-fA-F]{1,4}:){6}|(::([0-9a-fA-F]{1,4}:){5})|(([0-9a-fA-F]{1,4})?::([0-9a-fA-F]{1,4}:){4})|((([0-9a-fA-F]{1,4}:)?[0-9a-fA-F]{1,4})?::([0-9a-fA-F]{1,4}:){3})|((([0-9a-fA-F]{1,4}:){0,2}[0-9a-fA-F]{1,4})?::([0-9a-fA-F]{1,4}:){2})|((([0-9a-fA-F]{1,4}:){0,3}[0-9a-fA-F]{1,4})?::[0-9a-fA-F]{1,4}:)|((([0-9a-fA-F]{1,4}:){0,4}[0-9a-fA-F]{1,4})?::))((([0-9a-fA-F]{1,4}):([0-9a-fA-F]{1,4}))|(([0-9]|(1[0-9]{2})|(2[0-4][0-9])|(25[0-5]))\.([0-9]|(1[0-9]{2})|(2[0-4][0-9])|(25[0-5]))\.([0-9]|(1[0-9]{2})|(2[0-4][0-9])|(25[0-5]))\.([0-9]|(1[0-9]{2})|(2[0-4][0-9])|(25[0-5])))))|((([0-9a-fA-F]{1,4}:){0,5}[0-9a-fA-F]{1,4})?::[0-9a-fA-F]{1,4})|((([0-9a-fA-F]{1,4}:){0,5}[0-9a-fA-F]{1,4})?::))|(v[0-9a-fA-F]+\.[a-zA-Z0-9\-._~!$&'()*+,;=':]+))\])|(([0-9]|(1[0-9]{2})|(2[0-4][0-9])|(25[0-5]))\.([0-9]|(1[0-9]{2})|(2[0-4][0-9])|(25[0-5]))\.([0-9]|(1[0-9]{2})|(2[0-4][0-9])|(25[0-5]))\.([0-9]|(1[0-9]{2})|(2[0-4][0-9])|(25[0-5])))|(([a-zA-Z0-9\-._~!$&'()*+,;=']|(%[0-9a-fA-F]{2}))*))(:[0-9]*)?)((\/([a-zA-Z0-9\-._~!$&'()*+,;=':@]|(%[0-9a-fA-F]{2}))*)*))|(\/?(([a-zA-Z0-9\-._~!$&'()*+,;=':@]|(%[0-9a-fA-F]{2}))+(\/([a-zA-Z0-9\-._~!$&'()*+,;=':@]|(%[0-9a-fA-F]{2}))*)*)?))(\?(([a-zA-Z0-9\-._~!$&'()*+,;=':@\/?]|(%[0-9a-fA-F]{2}))*))?((#(([a-zA-Z0-9\-._~!$&'()*+,;=':@\/?]|(%[0-9a-fA-F]{2}))*)))?$
(assert (str.in_re X (re.++ (str.to_re ":") (re.union (re.++ (str.to_re "//") (re.* (re.++ (str.to_re "/") (re.* (re.union (re.++ (str.to_re "%") ((_ re.loop 2 2) (re.union (re.range "0" "9") (re.range "a" "f") (re.range "A" "F")))) (re.range "a" "z") (re.range "A" "Z") (re.range "0" "9") (str.to_re "-") (str.to_re ".") (str.to_re "_") (str.to_re "~") (str.to_re "!") (str.to_re "$") (str.to_re "&") (str.to_re "'") (str.to_re "(") (str.to_re ")") (str.to_re "*") (str.to_re "+") (str.to_re ",") (str.to_re ";") (str.to_re "=") (str.to_re ":") (str.to_re "@"))))) (re.opt (re.++ (re.* (re.union (re.++ (str.to_re "%") ((_ re.loop 2 2) (re.union (re.range "0" "9") (re.range "a" "f") (re.range "A" "F")))) (re.range "a" "z") (re.range "A" "Z") (re.range "0" "9") (str.to_re "-") (str.to_re ".") (str.to_re "_") (str.to_re "~") (str.to_re "!") (str.to_re "$") (str.to_re "&") (str.to_re "'") (str.to_re "(") (str.to_re ")") (str.to_re "*") (str.to_re "+") (str.to_re ",") (str.to_re ";") (str.to_re "=") (str.to_re ":"))) (str.to_re "@"))) (re.union (re.++ (str.to_re "[") (re.union (re.++ (str.to_re "v") (re.+ (re.union (re.range "0" "9") (re.range "a" "f") (re.range "A" "F"))) (str.to_re ".") (re.+ (re.union (re.range "a" "z") (re.range "A" "Z") (re.range "0" "9") (str.to_re "-") (str.to_re ".") (str.to_re "_") (str.to_re "~") (str.to_re "!") (str.to_re "$") (str.to_re "&") (str.to_re "'") (str.to_re "(") (str.to_re ")") (str.to_re "*") (str.to_re "+") (str.to_re ",") (str.to_re ";") (str.to_re "=") (str.to_re ":")))) (re.++ (re.union ((_ re.loop 6 6) (re.++ ((_ re.loop 1 4) (re.union (re.range "0" "9") (re.range "a" "f") (re.range "A" "F"))) (str.to_re ":"))) (re.++ (str.to_re "::") ((_ re.loop 5 5) (re.++ ((_ re.loop 1 4) (re.union (re.range "0" "9") (re.range "a" "f") (re.range "A" "F"))) (str.to_re ":")))) (re.++ (re.opt ((_ re.loop 1 4) (re.union (re.range "0" "9") (re.range "a" "f") (re.range "A" "F")))) (str.to_re "::") ((_ re.loop 4 4) (re.++ ((_ re.loop 1 4) (re.union (re.range "0" "9") (re.range "a" "f") (re.range "A" "F"))) (str.to_re ":")))) (re.++ (re.opt (re.++ (re.opt (re.++ ((_ re.loop 1 4) (re.union (re.range "0" "9") (re.range "a" "f") (re.range "A" "F"))) (str.to_re ":"))) ((_ re.loop 1 4) (re.union (re.range "0" "9") (re.range "a" "f") (re.range "A" "F"))))) (str.to_re "::") ((_ re.loop 3 3) (re.++ ((_ re.loop 1 4) (re.union (re.range "0" "9") (re.range "a" "f") (re.range "A" "F"))) (str.to_re ":")))) (re.++ (re.opt (re.++ ((_ re.loop 0 2) (re.++ ((_ re.loop 1 4) (re.union (re.range "0" "9") (re.range "a" "f") (re.range "A" "F"))) (str.to_re ":"))) ((_ re.loop 1 4) (re.union (re.range "0" "9") (re.range "a" "f") (re.range "A" "F"))))) (str.to_re "::") ((_ re.loop 2 2) (re.++ ((_ re.loop 1 4) (re.union (re.range "0" "9") (re.range "a" "f") (re.range "A" "F"))) (str.to_re ":")))) (re.++ (re.opt (re.++ ((_ re.loop 0 3) (re.++ ((_ re.loop 1 4) (re.union (re.range "0" "9") (re.range "a" "f") (re.range "A" "F"))) (str.to_re ":"))) ((_ re.loop 1 4) (re.union (re.range "0" "9") (re.range "a" "f") (re.range "A" "F"))))) (str.to_re "::") ((_ re.loop 1 4) (re.union (re.range "0" "9") (re.range "a" "f") (re.range "A" "F"))) (str.to_re ":")) (re.++ (re.opt (re.++ ((_ re.loop 0 4) (re.++ ((_ re.loop 1 4) (re.union (re.range "0" "9") (re.range "a" "f") (re.range "A" "F"))) (str.to_re ":"))) ((_ re.loop 1 4) (re.union (re.range "0" "9") (re.range "a" "f") (re.range "A" "F"))))) (str.to_re "::"))) (re.union (re.++ ((_ re.loop 1 4) (re.union (re.range "0" "9") (re.range "a" "f") (re.range "A" "F"))) (str.to_re ":") ((_ re.loop 1 4) (re.union (re.range "0" "9") (re.range "a" "f") (re.range "A" "F")))) (re.++ (re.union (re.range "0" "9") (re.++ (str.to_re "1") ((_ re.loop 2 2) (re.range "0" "9"))) (re.++ (str.to_re "2") (re.range "0" "4") (re.range "0" "9")) (re.++ (str.to_re "25") (re.range "0" "5"))) (str.to_re ".") (re.union (re.range "0" "9") (re.++ (str.to_re "1") ((_ re.loop 2 2) (re.range "0" "9"))) (re.++ (str.to_re "2") (re.range "0" "4") (re.range "0" "9")) (re.++ (str.to_re "25") (re.range "0" "5"))) (str.to_re ".") (re.union (re.range "0" "9") (re.++ (str.to_re "1") ((_ re.loop 2 2) (re.range "0" "9"))) (re.++ (str.to_re "2") (re.range "0" "4") (re.range "0" "9")) (re.++ (str.to_re "25") (re.range "0" "5"))) (str.to_re ".") (re.union (re.range "0" "9") (re.++ (str.to_re "1") ((_ re.loop 2 2) (re.range "0" "9"))) (re.++ (str.to_re "2") (re.range "0" "4") (re.range "0" "9")) (re.++ (str.to_re "25") (re.range "0" "5")))))) (re.++ (re.opt (re.++ ((_ re.loop 0 5) (re.++ ((_ re.loop 1 4) (re.union (re.range "0" "9") (re.range "a" "f") (re.range "A" "F"))) (str.to_re ":"))) ((_ re.loop 1 4) (re.union (re.range "0" "9") (re.range "a" "f") (re.range "A" "F"))))) (str.to_re "::") ((_ re.loop 1 4) (re.union (re.range "0" "9") (re.range "a" "f") (re.range "A" "F")))) (re.++ (re.opt (re.++ ((_ re.loop 0 5) (re.++ ((_ re.loop 1 4) (re.union (re.range "0" "9") (re.range "a" "f") (re.range "A" "F"))) (str.to_re ":"))) ((_ re.loop 1 4) (re.union (re.range "0" "9") (re.range "a" "f") (re.range "A" "F"))))) (str.to_re "::"))) (str.to_re "]")) (re.++ (re.union (re.range "0" "9") (re.++ (str.to_re "1") ((_ re.loop 2 2) (re.range "0" "9"))) (re.++ (str.to_re "2") (re.range "0" "4") (re.range "0" "9")) (re.++ (str.to_re "25") (re.range "0" "5"))) (str.to_re ".") (re.union (re.range "0" "9") (re.++ (str.to_re "1") ((_ re.loop 2 2) (re.range "0" "9"))) (re.++ (str.to_re "2") (re.range "0" "4") (re.range "0" "9")) (re.++ (str.to_re "25") (re.range "0" "5"))) (str.to_re ".") (re.union (re.range "0" "9") (re.++ (str.to_re "1") ((_ re.loop 2 2) (re.range "0" "9"))) (re.++ (str.to_re "2") (re.range "0" "4") (re.range "0" "9")) (re.++ (str.to_re "25") (re.range "0" "5"))) (str.to_re ".") (re.union (re.range "0" "9") (re.++ (str.to_re "1") ((_ re.loop 2 2) (re.range "0" "9"))) (re.++ (str.to_re "2") (re.range "0" "4") (re.range "0" "9")) (re.++ (str.to_re "25") (re.range "0" "5")))) (re.* (re.union (re.++ (str.to_re "%") ((_ re.loop 2 2) (re.union (re.range "0" "9") (re.range "a" "f") (re.range "A" "F")))) (re.range "a" "z") (re.range "A" "Z") (re.range "0" "9") (str.to_re "-") (str.to_re ".") (str.to_re "_") (str.to_re "~") (str.to_re "!") (str.to_re "$") (str.to_re "&") (str.to_re "'") (str.to_re "(") (str.to_re ")") (str.to_re "*") (str.to_re "+") (str.to_re ",") (str.to_re ";") (str.to_re "=")))) (re.opt (re.++ (str.to_re ":") (re.* (re.range "0" "9"))))) (re.++ (re.opt (str.to_re "/")) (re.opt (re.++ (re.+ (re.union (re.++ (str.to_re "%") ((_ re.loop 2 2) (re.union (re.range "0" "9") (re.range "a" "f") (re.range "A" "F")))) (re.range "a" "z") (re.range "A" "Z") (re.range "0" "9") (str.to_re "-") (str.to_re ".") (str.to_re "_") (str.to_re "~") (str.to_re "!") (str.to_re "$") (str.to_re "&") (str.to_re "'") (str.to_re "(") (str.to_re ")") (str.to_re "*") (str.to_re "+") (str.to_re ",") (str.to_re ";") (str.to_re "=") (str.to_re ":") (str.to_re "@"))) (re.* (re.++ (str.to_re "/") (re.* (re.union (re.++ (str.to_re "%") ((_ re.loop 2 2) (re.union (re.range "0" "9") (re.range "a" "f") (re.range "A" "F")))) (re.range "a" "z") (re.range "A" "Z") (re.range "0" "9") (str.to_re "-") (str.to_re ".") (str.to_re "_") (str.to_re "~") (str.to_re "!") (str.to_re "$") (str.to_re "&") (str.to_re "'") (str.to_re "(") (str.to_re ")") (str.to_re "*") (str.to_re "+") (str.to_re ",") (str.to_re ";") (str.to_re "=") (str.to_re ":") (str.to_re "@"))))))))) (re.opt (re.++ (str.to_re "?") (re.* (re.union (re.++ (str.to_re "%") ((_ re.loop 2 2) (re.union (re.range "0" "9") (re.range "a" "f") (re.range "A" "F")))) (re.range "a" "z") (re.range "A" "Z") (re.range "0" "9") (str.to_re "-") (str.to_re ".") (str.to_re "_") (str.to_re "~") (str.to_re "!") (str.to_re "$") (str.to_re "&") (str.to_re "'") (str.to_re "(") (str.to_re ")") (str.to_re "*") (str.to_re "+") (str.to_re ",") (str.to_re ";") (str.to_re "=") (str.to_re ":") (str.to_re "@") (str.to_re "/") (str.to_re "?"))))) (re.opt (re.++ (str.to_re "#") (re.* (re.union (re.++ (str.to_re "%") ((_ re.loop 2 2) (re.union (re.range "0" "9") (re.range "a" "f") (re.range "A" "F")))) (re.range "a" "z") (re.range "A" "Z") (re.range "0" "9") (str.to_re "-") (str.to_re ".") (str.to_re "_") (str.to_re "~") (str.to_re "!") (str.to_re "$") (str.to_re "&") (str.to_re "'") (str.to_re "(") (str.to_re ")") (str.to_re "*") (str.to_re "+") (str.to_re ",") (str.to_re ";") (str.to_re "=") (str.to_re ":") (str.to_re "@") (str.to_re "/") (str.to_re "?"))))) (str.to_re "\u{0a}") (re.union (re.range "a" "z") (re.range "A" "Z")) (re.* (re.union (re.range "a" "z") (re.range "A" "Z") (re.range "0" "9") (re.range "+" "."))))))
; /filename=[^\n]*\u{2e}jpm/i
(assert (not (str.in_re X (re.++ (str.to_re "/filename=") (re.* (re.comp (str.to_re "\u{0a}"))) (str.to_re ".jpm/i\u{0a}")))))
; ^\$?\d+(\.(\d{2}))?$
(assert (not (str.in_re X (re.++ (re.opt (str.to_re "$")) (re.+ (re.range "0" "9")) (re.opt (re.++ (str.to_re ".") ((_ re.loop 2 2) (re.range "0" "9")))) (str.to_re "\u{0a}")))))
; /\u{2e}kvl([\?\u{5c}\u{2f}]|$)/smiU
(assert (not (str.in_re X (re.++ (str.to_re "/.kvl") (re.union (str.to_re "?") (str.to_re "\u{5c}") (str.to_re "/")) (str.to_re "/smiU\u{0a}")))))
(check-sat)
